c [ 1 -2 -3 -4 -5 -6 -7 8 -9 10 ]
c r=8.000 p0=0.080
p cnf 10 80
8 -10 3 0
-4 10 -7 0
9 10 -7 0
8 -6 -10 0
2 -5 6 0
1 2 -9 0
1 -2 5 0
-10 -9 -1 0
5 -9 10 0
7 -6 5 0
-10 3 -6 0
7 -9 5 0
-5 6 7 0
-4 3 2 0
-8 -7 9 0
-7 9 -1 0
4 1 -9 0
-4 -10 -2 0
-10 8 3 0
2 10 -5 0
-2 -7 -6 0
-3 -4 -10 0
-6 -4 -2 0
-6 9 -5 0
-8 7 -3 0
-7 -1 10 0
-1 7 -5 0
5 8 1 0
6 2 -7 0
2 -8 -3 0
-9 2 3 0
-1 5 -6 0
-4 10 -6 0
1 8 6 0
-6 4 -9 0
-10 5 -9 0
4 -2 -5 0
8 -5 7 0
6 4 -7 0
-8 -6 4 0
-8 10 5 0
-3 -10 -4 0
9 -8 -7 0
-6 -3 -8 0
-3 4 -10 0
1 -5 2 0
-9 -6 4 0
-5 -1 2 0
2 5 -9 0
9 10 -8 0
-6 5 3 0
6 -2 -8 0
3 2 1 0
-1 -3 -7 0
5 -9 3 0
-4 -8 -1 0
-8 -1 -6 0
-6 -1 4 0
-4 7 -1 0
3 5 10 0
5 -10 -3 0
8 7 -1 0
4 2 -6 0
7 8 9 0
3 6 -5 0
-8 -6 -1 0
-4 -6 -7 0
10 2 1 0
9 -6 4 0
5 -6 8 0
4 -10 -9 0
4 7 1 0
-6 5 -10 0
-7 6 -5 0
-5 -8 -4 0
-9 5 4 0
-9 -3 8 0
-9 -6 10 0
-6 1 -9 0
9 -4 6 0
